results_rootrelaxation/bin018_060_042.srr.sol
solution status: optimal solution found
objective value:                                    0
_var2333_                           0.118260362325215 	(obj:0)
_var2789_                           0.311243757856798 	(obj:0)
_var2802_                           0.282725631074973 	(obj:0)
_var2818_                           0.421785362889957 	(obj:0)
_var2827_                           0.145941814209398 	(obj:0)
_var2833_                           0.130094689611562 	(obj:0)
_var2837_                          0.0310047519755272 	(obj:0)
_var2838_                           0.154239981260648 	(obj:0)
_var2877_                           0.149606225401591 	(obj:0)
_var2880_                           0.228130833384505 	(obj:0)
_var2887_                          0.0680149057813361 	(obj:0)
_var2888_                         0.00842969459939402 	(obj:0)
_var2890_                           0.235053641281548 	(obj:0)
_var2892_                            0.20875698175944 	(obj:0)
_var2894_                          0.0671318157113128 	(obj:0)
_var2897_                           0.109049738828721 	(obj:0)
_var2901_                          0.0516816656742943 	(obj:0)
_var2902_                           0.061323182211437 	(obj:0)
_var2907_                          0.0891075609686445 	(obj:0)
_var2908_                           0.452780808230979 	(obj:0)
_var2913_                          0.0811254886356314 	(obj:0)
_var2914_                          0.0391494259695189 	(obj:0)
_var2915_                          0.0095028067685321 	(obj:0)
_var2918_                          0.0575396090082135 	(obj:0)
_var2929_                           0.373446316236704 	(obj:0)
_var2934_                            0.13496002907448 	(obj:0)
_var2940_                           0.121345526452018 	(obj:0)
_var2958_                           0.112690381027398 	(obj:0)
_var2963_                           0.204806805158255 	(obj:0)
_var2968_                           0.184894130754743 	(obj:0)
_var2972_                          0.0129864328646895 	(obj:0)
_var2973_                            0.12966284611637 	(obj:0)
_var2978_                            0.14485905656616 	(obj:0)
_var2981_                           0.195224676975425 	(obj:0)
_var2984_                           0.053517633343977 	(obj:0)
_var2986_                         0.00945050968931538 	(obj:0)
_var2991_                          0.0885238573301393 	(obj:0)
_var2992_                          0.0265885137929773 	(obj:0)
_var2995_                           0.265330775185776 	(obj:0)
_var2996_                           0.231486104674737 	(obj:0)
_var3001_                           0.121963677861476 	(obj:0)
_var3002_                          0.0379647645286117 	(obj:0)
_var3005_                           0.183876245977397 	(obj:0)
_var3006_                         0.00277793789555433 	(obj:0)
_var3016_                          0.0707162807891794 	(obj:0)
_var3021_                           0.142302584791384 	(obj:0)
_var3023_                           0.257074398795141 	(obj:0)
_var3025_                          0.0850805045945039 	(obj:0)
_var3033_                          0.0462434608784323 	(obj:0)
_var3037_                           0.124841699642472 	(obj:0)
_var3041_                          0.0360552056132184 	(obj:0)
_var3042_                           0.145684388981208 	(obj:0)
_var3043_                          0.0853765979949595 	(obj:0)
_var3045_                           0.199284870246825 	(obj:0)
_var3046_                          0.0386119504724309 	(obj:0)
_var3048_                          0.0273477047634715 	(obj:0)
_var3049_                           0.135097975109273 	(obj:0)
_var3050_                           0.150593696773466 	(obj:0)
_var3053_                           0.178038951072892 	(obj:0)
_var3055_                          0.0884401636927762 	(obj:0)
_var3058_                           0.161466112992424 	(obj:0)
_var3060_                           0.068932495074977 	(obj:0)
_var3068_                          0.0445941934999926 	(obj:0)
_var3071_                          0.0384165902955295 	(obj:0)
_var3072_                           0.245553077069728 	(obj:0)
_var3074_                          0.0694336223684659 	(obj:0)
_var3077_                           0.138848166652233 	(obj:0)
_var3080_                           0.144677013103408 	(obj:0)
_var3084_                         0.00261743534065582 	(obj:0)
_var3086_                           0.273078181821055 	(obj:0)
_var3087_                          0.0244216202095043 	(obj:0)
_var3088_                           0.291837050126435 	(obj:0)
_var3089_                         0.00874619494203306 	(obj:0)
_var3090_                          0.0462304975225256 	(obj:0)
_var3092_                           0.239026605779244 	(obj:0)
_var3099_                          0.0138098784603368 	(obj:0)
_var3100_                            0.15050335305218 	(obj:0)
_var3102_                             0.1473044279835 	(obj:0)
_var3104_                           0.170158450725816 	(obj:0)
_var3106_                           0.156108336333815 	(obj:0)
_var3109_                           0.211330020024159 	(obj:0)
_var3110_                           0.186922977248398 	(obj:0)
_var3114_                         0.00965498656402153 	(obj:0)
_var3116_                          0.0809459411953622 	(obj:0)
_var3118_                           0.125255470632576 	(obj:0)
_var3119_                           0.245095581144727 	(obj:0)
_var3122_                         0.00864061059268552 	(obj:0)
_var3125_                          0.0438626467799555 	(obj:0)
_var3126_                          0.0473489537933897 	(obj:0)
_var3128_                          0.0736432219869491 	(obj:0)
_var3130_                           0.224418910837318 	(obj:0)
_var3131_                          0.0969677317708776 	(obj:0)
_var3132_                           0.108817163565435 	(obj:0)
_var3133_                           0.100095166383703 	(obj:0)
_var3134_                           0.114806835725803 	(obj:0)
_var3135_                          0.0889520578491002 	(obj:0)
_var3138_                          0.0593607759415967 	(obj:0)
_var3140_                           0.131959067087121 	(obj:0)
_var3142_                           0.161509674466044 	(obj:0)
_var3143_                          0.0867173050860726 	(obj:0)
_var3144_                            0.10108669532959 	(obj:0)
_var3145_                           0.099219293166522 	(obj:0)
_var3146_                           0.119666451269744 	(obj:0)
_var3148_                           0.153896412794506 	(obj:0)
_var3149_                           0.145496556260673 	(obj:0)
_var3151_                           0.155942278506246 	(obj:0)
_var3152_                          0.0586493146580608 	(obj:0)
_var3154_                           0.118208661402857 	(obj:0)
_var3156_                         0.00235865994808462 	(obj:0)
_var3157_                         0.00479071013373122 	(obj:0)
_var3158_                           0.219154697075623 	(obj:0)
_var3159_                          0.0376002093497459 	(obj:0)
_var3164_                           0.277748679419286 	(obj:0)
_var3165_                          0.0833024241459767 	(obj:0)
_var3167_                          0.0470249875595184 	(obj:0)
_var3168_                         0.00474914137555646 	(obj:0)
_var3170_                           0.236891677765211 	(obj:0)
_var3171_                           0.263905920872854 	(obj:0)
_var3173_                           0.105622120586116 	(obj:0)
_var3174_                          0.0788977681347601 	(obj:0)
_var3179_                          0.0338781703678395 	(obj:0)
_var3180_                          0.0566758180506425 	(obj:0)
_var3183_                          0.0717359499975817 	(obj:0)
_var3184_                         0.00658138603325095 	(obj:0)
_var3185_                           0.104638237189574 	(obj:0)
_var3187_                           0.199392592748155 	(obj:0)
_var3189_                           0.015066189455763 	(obj:0)
_var3190_                          0.0762525695694633 	(obj:0)
_var3192_                          0.0287962628094043 	(obj:0)
_var3193_                          0.0268838214216098 	(obj:0)
_var3195_                          0.0691676742144973 	(obj:0)
_var3196_                          0.0366619576859521 	(obj:0)
_var3197_                          0.0596331645918364 	(obj:0)
_var3198_                          0.0897905577371316 	(obj:0)
_var3202_                          0.0326730135548481 	(obj:0)
_var3203_                          0.0806422848957837 	(obj:0)
_var3204_                           0.117218720089881 	(obj:0)
_var3205_                           0.169325924697781 	(obj:0)
_var3206_                           0.120581775055234 	(obj:0)
_var3208_                          0.0818789156032119 	(obj:0)
_var3209_                           0.100156933725093 	(obj:0)
_var3211_                          0.0267211289247692 	(obj:0)
_var3216_                          0.0626996493968439 	(obj:0)
_var3217_                           0.107465822063454 	(obj:0)
_var3219_                           0.025238999875463 	(obj:0)
_var3223_                          0.0745533131813586 	(obj:0)
_var3224_                            0.10326422525583 	(obj:0)
_var3227_                          0.0371307192024858 	(obj:0)
_var3228_                          0.0222373750954315 	(obj:0)
_var3229_                          0.0479483945889969 	(obj:0)
